qbf_easy_train/easy_1465_UNSAT.qdimacs
p cnf 37 107
a 33 36 28 0
e 1 2 3 4 5 6 7 8 9 10 11 12 13 14 15 16 17 18 19 20 21 22 23 24 25 26 27 29 30 31 32 34 35 37 0
1 2 0
-1 2 0
-3 4 -5 0
3 -4 -5 0
-3 -4 5 0
3 4 5 0
-6 -2 0
-6 -5 0
2 5 6 0
8 -2 0
8 7 0
2 -7 -8 0
-10 -5 0
-10 -9 0
5 9 10 0
11 -8 0
11 -10 0
8 10 -11 0
15 14 0
15 -1 0
-14 1 -15 0
-13 15 -16 0
13 -15 -16 0
-13 -15 16 0
13 15 16 0
-17 12 0
-17 16 0
-12 -16 17 0
-18 1 0
-18 -3 0
-1 3 18 0
19 -18 0
19 13 0
18 -13 -19 0
20 -19 0
20 -7 0
19 7 -20 0
21 -3 0
21 -14 0
3 14 -21 0
22 2 0
22 3 0
-2 -3 -22 0
23 21 0
23 -22 0
-21 22 -23 0
24 9 0
24 -4 0
-9 4 -24 0
23 -24 -25 0
-23 24 -25 0
23 24 25 0
-23 -24 25 0
-26 -20 0
-26 -25 0
20 25 26 0
-17 26 -27 0
17 -26 -27 0
-17 -26 27 0
17 26 27 0
-11 -27 -28 0
11 27 -28 0
-11 27 28 0
11 -27 28 0
6 -28 -29 0
-6 28 -29 0
6 28 29 0
-6 -28 29 0
-30 4 0
-30 4 0
-4 30 0
31 -30 0
31 -2 0
30 2 -31 0
32 14 0
32 -22 0
-14 22 -32 0
-33 5 0
-33 -4 0
-5 4 33 0
3 -33 -34 0
-3 33 -34 0
3 33 34 0
-3 -33 34 0
32 -34 -35 0
-32 34 -35 0
32 34 35 0
-32 -34 35 0
31 35 -36 0
-31 -35 -36 0
31 -35 36 0
-31 35 36 0
29 36 -37 0
-29 -36 -37 0
29 -36 37 0
-29 36 37 0
13 -17 -8 0
6 -27 28 -1 -10 0
-5 -28 20 -23 0
15 -30 34 12 -10 3 -21 -22 0
-18 11 -9 0
-12 27 18 1 -29 21 7 0
-25 28 17 -11 -5 21 4 0
29 4 3 0
-24 -8 -31 -20 23 -19 12 0
14 17 26 -10 0
37 0
