sat_easy_train/easy_1465_UNSAT.dimacs
p cnf 95 299
-1 2 -3 0
1 -2 -3 0
-1 -2 3 0
1 2 3 0
-3 4 -5 0
3 -4 -5 0
-3 -4 5 0
3 4 5 0
5 -2 -6 0
-5 2 -6 0
5 2 6 0
-5 -2 6 0
-8 6 0
-8 -7 0
-6 7 8 0
10 9 0
10 -7 0
-9 7 -10 0
11 -10 0
11 3 0
10 -3 -11 0
-9 11 -12 0
9 -11 -12 0
-9 -11 12 0
9 11 12 0
-13 9 0
-13 -12 0
-9 12 13 0
-14 -8 0
-14 13 0
8 -13 14 0
17 -15 0
17 -16 0
15 16 -17 0
-19 17 0
-19 -18 0
-17 18 19 0
20 -16 0
20 -19 0
16 19 -20 0
-21 -15 0
-21 -20 0
15 20 21 0
-2 -21 -22 0
2 21 -22 0
-2 21 22 0
2 -21 22 0
-23 -14 0
-23 22 0
14 -22 23 0
-24 5 0
-24 -17 0
-5 17 24 0
-25 24 0
-25 -15 0
-24 15 25 0
-25 26 -27 0
25 -26 -27 0
-25 -26 27 0
25 26 27 0
4 -27 -28 0
-4 27 -28 0
4 27 28 0
-4 -27 28 0
29 9 0
29 -17 0
-9 17 -29 0
30 -29 0
30 -18 0
29 18 -30 0
31 -7 0
31 10 0
7 -10 -31 0
-32 -15 0
-32 6 0
15 -6 32 0
-31 32 -33 0
31 -32 -33 0
-31 -32 33 0
31 32 33 0
-35 33 0
-35 34 0
-33 -34 35 0
-36 30 0
-36 -35 0
-30 35 36 0
-28 -36 -37 0
28 36 -37 0
-28 36 37 0
28 -36 37 0
-11 -10 -38 0
11 10 -38 0
-11 10 38 0
11 -10 38 0
39 4 0
39 -4 0
-38 -39 -40 0
38 39 -40 0
-38 39 40 0
38 -39 40 0
-42 -41 0
-42 -41 0
41 42 0
40 -42 -43 0
-40 42 -43 0
40 42 43 0
-40 -42 43 0
-44 -37 0
-44 43 0
37 -43 44 0
-45 -23 0
-45 -44 0
23 44 45 0
-39 -6 -46 0
39 6 -46 0
-39 6 46 0
39 -6 46 0
-48 -47 0
-48 -6 0
47 6 48 0
50 -3 0
50 -49 0
3 49 -50 0
-2 -10 -51 0
2 10 -51 0
-2 10 51 0
2 -10 51 0
-52 50 0
-52 51 0
-50 -51 52 0
-53 48 0
-53 52 0
-48 -52 53 0
-9 -1 -54 0
9 1 -54 0
-9 1 54 0
9 -1 54 0
-4 54 -55 0
4 -54 -55 0
-4 -54 55 0
4 54 55 0
-26 55 -56 0
26 -55 -56 0
-26 -55 56 0
26 55 56 0
57 -53 0
57 56 0
53 -56 -57 0
58 6 0
58 31 0
-6 -31 -58 0
60 31 0
60 -27 0
-31 27 -60 0
-61 -59 0
-61 60 0
59 -60 61 0
62 -29 0
62 3 0
29 -3 -62 0
-59 -32 -63 0
59 32 -63 0
-59 32 63 0
59 -32 63 0
64 -8 0
64 63 0
8 -63 -64 0
-65 62 0
-65 64 0
-62 -64 65 0
61 -65 -66 0
-61 65 -66 0
61 65 66 0
-61 -65 66 0
67 -58 0
67 -66 0
58 66 -67 0
68 -57 0
68 -67 0
57 67 -68 0
-69 46 0
-69 -68 0
-46 68 69 0
70 24 0
70 15 0
-24 -15 -70 0
73 71 0
73 -72 0
-71 72 -73 0
74 -1 0
74 73 0
1 -73 -74 0
-75 -70 0
-75 -74 0
70 74 75 0
76 -59 0
76 -55 0
59 55 -76 0
-77 76 0
-77 63 0
-76 -63 77 0
78 75 0
78 77 0
-75 -77 -78 0
-79 30 0
-79 21 0
-30 -21 79 0
80 79 0
80 -72 0
-79 72 -80 0
26 80 -81 0
-26 -80 -81 0
26 -80 81 0
-26 80 81 0
-82 8 0
-82 -72 0
-8 72 82 0
83 6 0
83 8 0
-6 -8 -83 0
84 -83 0
84 -60 0
83 60 -84 0
85 -59 0
85 84 0
59 -84 -85 0
82 85 -86 0
-82 -85 -86 0
82 -85 86 0
-82 85 86 0
87 -81 0
87 -86 0
81 86 -87 0
80 21 -88 0
-80 -21 -88 0
80 -21 88 0
-80 21 88 0
-89 64 0
-89 -88 0
-64 88 89 0
87 -89 -90 0
-87 89 -90 0
87 89 90 0
-87 -89 90 0
-91 -80 0
-91 9 0
80 -9 91 0
92 -90 0
92 -91 0
90 91 -92 0
93 78 0
93 92 0
-78 -92 -93 0
-94 69 0
-94 -93 0
-69 93 94 0
95 -45 0
95 94 0
45 -94 -95 0
28 48 -11 40 77 -19 0
94 71 53 0
15 58 0
-38 -61 48 78 0
-49 61 -17 0
-55 49 -2 -62 -68 -58 0
-66 1 92 47 -11 -34 0
-82 -50 9 25 -26 18 0
6 -23 -93 -92 74 9 0
54 90 25 -9 0
-92 -47 37 13 69 60 0
-85 -84 92 0
-12 22 92 -6 -15 -79 0
-71 18 15 0
-81 32 0
-54 48 -61 -31 84 0
-11 18 19 61 0
-34 -89 47 -83 -80 79 0
-77 -67 56 -8 0
-10 14 -85 61 32 26 0
80 62 -3 0
69 -26 23 0
-88 -66 0
-26 -33 -11 52 0
-88 56 -73 0
-94 -9 -75 40 21 0
-23 17 -60 -28 80 0
-26 -56 74 54 -39 0
-78 -64 0
33 -6 0
-33 45 18 61 31 0
-15 19 -11 0
27 41 37 -63 0
-50 3 -45 -84 27 -41 0
-79 -74 69 -67 -5 0
-10 17 -34 51 -54 -4 0
1 -33 90 53 88 0
46 56 0
59 -58 51 -10 82 0
95 0
